2025-03-15 04:37:49,405 - INFO - Set parameter WLSAccessID
2025-03-15 04:37:49,405 - INFO - Set parameter WLSSecret
2025-03-15 04:37:49,405 - INFO - Set parameter LicenseID to value 2628134
2025-03-15 04:37:49,407 - INFO - Academic license 2628134 - for non-commercial use only - registered to bs___@uw.edu
2025-03-15 04:37:49,408 - INFO - Initialization complete
2025-03-15 04:37:49,647 - INFO - Variables created successfully
2025-03-15 04:37:50,910 - INFO - Constraints added successfully
2025-03-15 04:37:50,911 - INFO - Objective function with soft constraints set successfully
2025-03-15 04:37:50,986 - INFO - ================================================================================
2025-03-15 04:37:50,986 - INFO - SYSTEM CONFIGURATION
2025-03-15 04:37:50,986 - INFO - System has 373.7 GB of RAM available
2025-03-15 04:37:50,986 - INFO - Setting Gurobi memory limit to 355 GB (95% of available RAM)
2025-03-15 04:37:50,986 - INFO - Set parameter MemLimit to value 363520
2025-03-15 04:37:50,986 - INFO - Set parameter Presolve to value 1
2025-03-15 04:37:50,986 - INFO - Set parameter Method to value 1
2025-03-15 04:37:50,986 - INFO - Set parameter MIPFocus to value 1
2025-03-15 04:37:50,986 - INFO - Set parameter MIPGap to value 0.1
2025-03-15 04:37:50,986 - INFO - Set parameter TimeLimit to value 25200
2025-03-15 04:37:50,986 - INFO - Set parameter NodefileStart to value 0.95
2025-03-15 04:37:50,986 - INFO - Set parameter NodefileDir to value "/tmp/gurobi_nodefiles"
2025-03-15 04:37:50,987 - INFO - Node file directory: /tmp/gurobi_nodefiles
2025-03-15 04:37:50,987 - INFO - Will switch to disk storage when memory reaches 95.0% of allocated RAM
2025-03-15 04:37:50,987 - INFO - Set parameter OutputFlag to value 1
2025-03-15 04:37:50,987 - INFO - Set parameter DisplayInterval to value 5
2025-03-15 04:37:50,988 - INFO - Set parameter Threads to value 32
2025-03-15 04:37:50,988 - INFO - Using 32 threads out of 48 available cores
2025-03-15 04:37:50,988 - INFO - Generating initial solution using advanced greedy algorithm...
2025-03-15 04:37:51,096 - INFO - Greedy algorithm generated initial values for: 879 x vars, 50 z vars, 879 y vars
2025-03-15 04:37:51,100 - INFO - Initial solution: 879/200 students assigned, 50/50 sections used
2025-03-15 04:37:51,100 - INFO - Set parameter MIPFocus to value 1
2025-03-15 04:37:51,100 - INFO - ================================================================================
2025-03-15 04:37:51,100 - INFO - STARTING OPTIMIZATION
2025-03-15 04:37:51,100 - INFO - Maximum possible satisfied requests: 1200
2025-03-15 04:37:51,100 - INFO - ================================================================================
2025-03-15 04:37:51,126 - INFO - Gurobi Optimizer version 12.0.1 build v12.0.1rc0 (linux64 - "Debian GNU/Linux 12 (bookworm)")
2025-03-15 04:37:51,126 - INFO - 
2025-03-15 04:37:51,126 - INFO - CPU model: Intel(R) Xeon(R) Platinum 8259CL CPU @ 2.50GHz, instruction set [SSE2|AVX|AVX2|AVX512]
2025-03-15 04:37:51,126 - INFO - Thread count: 24 physical cores, 48 logical processors, using up to 32 threads
2025-03-15 04:37:51,126 - INFO - 
2025-03-15 04:37:51,127 - INFO - Non-default parameters:
2025-03-15 04:37:51,127 - INFO - TimeLimit  25200
2025-03-15 04:37:51,127 - INFO - MemLimit  363520
2025-03-15 04:37:51,127 - INFO - MIPGap  0.1
2025-03-15 04:37:51,127 - INFO - Method  1
2025-03-15 04:37:51,127 - INFO - MIPFocus  1
2025-03-15 04:37:51,127 - INFO - NodefileStart  0.95
2025-03-15 04:37:51,127 - INFO - Presolve  1
2025-03-15 04:37:51,127 - INFO - Threads  32
2025-03-15 04:37:51,127 - INFO - 
2025-03-15 04:37:51,129 - INFO - Academic license 2628134 - for non-commercial use only - registered to bs___@uw.edu
2025-03-15 04:37:51,129 - INFO - Optimize a model with 85978 rows, 32730 columns and 229882 nonzeros
2025-03-15 04:37:51,132 - INFO - Model fingerprint: 0xeeb19ce2
2025-03-15 04:37:51,132 - INFO - Variable types: 0 continuous, 32730 integer (32680 binary)
2025-03-15 04:37:51,132 - INFO - Coefficient statistics:
2025-03-15 04:37:51,132 - INFO -   Matrix range     [1e+00, 1e+00]
2025-03-15 04:37:51,132 - INFO -   Objective range  [1e+00, 1e+03]
2025-03-15 04:37:51,132 - INFO -   Bounds range     [1e+00, 1e+00]
2025-03-15 04:37:51,133 - INFO -   RHS range        [1e+00, 3e+01]
2025-03-15 04:37:51,133 - INFO - 
2025-03-15 04:37:51,133 - INFO - Warning: Completing partial solution with 30922 unfixed non-continuous variables out of 32730
2025-03-15 04:37:51,190 - INFO - User MIP start produced solution with objective 134034 (0.06s)
2025-03-15 04:37:51,194 - INFO - Loaded user MIP start with objective 134034
2025-03-15 04:37:51,195 - INFO - 
2025-03-15 04:37:51,869 - INFO - Presolve removed 120 rows and 1208 columns
2025-03-15 04:37:51,869 - INFO - Presolve time: 0.67s
2025-03-15 04:37:51,869 - INFO - Presolved: 85858 rows, 31522 columns, 228644 nonzeros
2025-03-15 04:37:51,927 - INFO - Variable types: 0 continuous, 31522 integer (31474 binary)
2025-03-15 04:37:55,370 - INFO - 
2025-03-15 04:37:55,370 - INFO - Root relaxation: objective 1.000000e+00, 9390 iterations, 3.44 seconds (3.85 work units)
2025-03-15 04:37:57,382 - INFO - Total elapsed time = 6.26s (DegenMoves)
2025-03-15 04:38:14,130 - INFO - 
2025-03-15 04:38:14,130 - INFO -     Nodes    |    Current Node    |     Objective Bounds      |     Work
2025-03-15 04:38:14,130 - INFO -  Expl Unexpl |  Obj  Depth IntInf | Incumbent    BestBd   Gap | It/Node Time
2025-03-15 04:38:14,130 - INFO - 
2025-03-15 04:38:14,130 - INFO -      0     0    1.00000    0 2995 134034.000    1.00000   100%     -   23s
2025-03-15 04:38:26,098 - INFO - H    0     0                    72034.000000    1.00000   100%     -   34s
2025-03-15 04:38:26,102 - INFO - H    0     0                    16071.000000    1.00000   100%     -   34s
2025-03-15 04:38:26,106 - INFO - H    0     0                    16068.000000    1.00000   100%     -   34s
2025-03-15 04:38:26,110 - INFO - H    0     0                    15068.000000    1.00000   100%     -   34s
2025-03-15 04:38:26,113 - INFO - H    0     0                    15060.000000    1.00000   100%     -   34s
2025-03-15 04:38:26,117 - INFO - H    0     0                    12063.000000    1.00000   100%     -   34s
2025-03-15 04:38:27,273 - INFO -      0     0    1.00000    0 5111 12063.0000    1.00000   100%     -   36s
2025-03-15 04:38:28,450 - INFO - H    0     0                    12060.000000    1.00000   100%     -   37s
2025-03-15 04:38:28,461 - INFO - H    0     0                    12057.000000    1.00000   100%     -   37s
2025-03-15 04:39:43,825 - INFO - H    0     0                    8009.0000000    1.00000   100%     -  112s
2025-03-15 04:39:43,829 - INFO - H    0     0                    8008.0000000    1.00000   100%     -  112s
2025-03-15 04:39:43,832 - INFO - H    0     0                    6010.0000000    1.00000   100%     -  112s
2025-03-15 04:39:43,836 - INFO - H    0     0                    6007.0000000    1.00000   100%     -  112s
2025-03-15 04:39:43,840 - INFO - H    0     0                    5008.0000000    1.00000   100%     -  112s
2025-03-15 04:39:43,843 - INFO - H    0     0                    2002.0000000    1.00000   100%     -  112s
2025-03-15 04:39:43,847 - INFO - H    0     0                    2001.0000000    1.00000   100%     -  112s
2025-03-15 04:39:43,851 - INFO - H    0     0                       1.0000000    1.00000  0.00%     -  112s
2025-03-15 04:39:45,582 - INFO -      0     0    1.00000    0 7035    1.00000    1.00000  0.00%     -  114s
2025-03-15 04:39:45,594 - INFO - 
2025-03-15 04:39:45,594 - INFO - Cutting planes:
2025-03-15 04:39:45,594 - INFO -   Zero half: 10
2025-03-15 04:39:45,594 - INFO -   RLT: 1824
2025-03-15 04:39:45,594 - INFO -   BQP: 25
2025-03-15 04:39:45,598 - INFO - 
2025-03-15 04:39:45,598 - INFO - Explored 1 nodes (89429 simplex iterations) in 114.47 seconds (110.14 work units)
2025-03-15 04:39:45,598 - INFO - Thread count was 32 (of 48 available processors)
2025-03-15 04:39:45,598 - INFO - 
2025-03-15 04:39:45,598 - INFO - Solution count 10: 1 2001 2002 ... 12060
2025-03-15 04:39:45,598 - INFO - 
2025-03-15 04:39:45,598 - INFO - Optimal solution found (tolerance 1.00e-01)
2025-03-15 04:39:45,599 - INFO - Best objective 1.000000000000e+00, best bound 1.000000000000e+00, gap 0.0000%
2025-03-15 04:39:45,624 - INFO - 
2025-03-15 04:39:45,624 - INFO - User-callback calls 12854, time in user-callback 0.07 sec
2025-03-15 04:39:45,624 - INFO - ================================================================================
2025-03-15 04:39:45,624 - INFO - OPTIMIZATION RESULTS
2025-03-15 04:39:45,626 - INFO - STATUS: Found optimal solution!
2025-03-15 04:39:45,626 - INFO - SATISFIED REQUESTS: 1200 out of 1200
2025-03-15 04:39:45,626 - INFO - SATISFACTION RATE: 100.00%
2025-03-15 04:39:45,626 - INFO - CAPACITY VIOLATIONS: 1 sections over capacity
2025-03-15 04:39:45,626 - INFO - TOTAL OVERAGES: 1 students over capacity
2025-03-15 04:39:45,626 - INFO - OBJECTIVE VALUE: 1.0
2025-03-15 04:39:45,626 - INFO -   - Missed requests penalty: 0
2025-03-15 04:39:45,626 - INFO -   - Capacity violations penalty: 1.0
2025-03-15 04:39:45,627 - INFO - RUNTIME: 114.50 seconds
2025-03-15 04:39:45,627 - INFO - NODES EXPLORED: 1.0
2025-03-15 04:39:45,627 - INFO - MIP GAP: 0.00%
2025-03-15 04:39:45,627 - INFO - PEAK MEMORY USAGE: Not available
2025-03-15 04:39:45,627 - INFO - ================================================================================
2025-03-15 04:39:45,627 - INFO - Saving solution files...
2025-03-15 04:39:45,656 - INFO - Solution saved successfully
2025-03-15 04:39:45,657 - INFO - Warning: environment still referenced so free is deferred (Continue to use WLS)
